77      4       
10      10      10      10      
0       0       0       0       0       5       2       3       6       7       11      
6       1       1       2       1       4       4       8       10      12      
10      6       4       5       7       7       10      12      13      14      15      21      22      
4       7       2       4       5       2       5       20      
6       4       8       3       2       4       9       14      18      21      
4       8       7       7       6       6       13      14      18      20      22      27      
9       2       4       3       7       5       12      16      22      31      34      
10      4       7       6       7       5       15      17      25      26      30      
1       9       6       3       5       4       13      17      22      27      
2       3       7       5       5       4       17      18      27      30      
8       7       8       7       5       7       21      22      24      25      27      30      34      
3       4       10      8       4       4       18      19      26      30      
6       6       5       5       4       4       19      23      30      34      
2       6       8       7       3       4       19      25      30      31      
7       3       6       3       4       4       19      27      31      34      
2       7       2       3       3       5       23      24      27      29      30      
7       4       7       7       6       3       19      23      34      
9       3       7       2       4       4       23      24      25      33      
2       5       5       6       3       4       24      29      33      38      
9       6       4       6       7       3       24      29      38      
4       8       4       5       4       2       23      29      
2       6       4       6       3       4       28      33      38      41      
8       2       3       5       5       5       32      36      37      38      41      
6       10      7       8       5       3       28      32      41      
10      5       3       7       6       3       29      32      41      
2       5       8       4       2       3       28      32      41      
10      3       7       6       6       2       28      41      
1       7       7       6       2       5       35      36      37      39      40      
4       4       4       4       3       5       35      36      37      39      40      
7       2       1       6       6       4       33      36      38      43      
6       7       7       4       6       5       36      37      39      43      46      
6       5       5       10      7       2       35      39      
3       1       7       3       8       5       39      40      42      45      46      
3       6       3       8       7       3       37      46      51      
3       5       9       3       3       9       42      43      45      46      47      48      49      51      57      
9       6       2       10      7       7       42      44      47      48      51      53      54      
2       3       7       7       4       6       42      44      45      48      53      54      
3       3       2       4       5       4       40      42      44      53      
3       3       4       8       4       5       44      51      53      54      56      
4       4       8       5       3       7       47      48      49      50      55      57      58      
10      7       4       6       5       7       46      47      48      50      51      54      55      
8       3       4       3       6       8       50      52      55      56      58      60      62      67      
1       6       5       5       6       7       50      52      53      55      62      65      68      
8       5       4       6       6       6       49      50      55      57      60      67      
10      4       4       4       2       7       50      52      55      60      65      67      68      
6       4       6       9       8       9       56      59      60      61      62      63      65      66      67      
9       4       4       5       2       6       52      56      60      63      65      67      
5       5       3       4       6       3       52      62      63      
6       5       6       4       8       2       52      65      
2       3       4       2       4       6       61      63      64      66      70      72      
3       2       4       6       4       6       62      66      67      68      72      73      
3       6       4       4       5       5       59      64      66      72      76      
8       4       7       3       7       5       60      66      67      71      76      
7       5       6       4       5       3       59      69      72      
5       10      4       3       4       5       69      70      71      72      73      
10      5       8       2       4       5       64      69      70      72      76      
3       4       2       5       4       4       64      68      69      73      
5       7       5       4       7       3       65      68      72      
10      4       4       8       5       3       70      71      73      
5       7       5       5       6       3       69      70      75      
3       4       3       2       5       3       69      71      76      
5       7       3       3       9       3       74      75      76      
3       7       3       8       3       2       69      71      
2       6       3       5       3       2       74      75      
10      2       4       3       4       2       74      75      
10      5       5       4       7       1       69      
3       6       5       4       4       1       69      
9       7       9       2       3       1       70      
9       4       8       6       7       1       74      
5       5       3       5       5       1       74      
5       4       1       5       2       1       74      
5       8       5       4       6       1       75      
3       4       5       3       5       1       75      
8       5       5       5       9       1       77      
1       5       4       5       8       1       77      
6       6       6       8       7       1       77      
0       0       0       0       0       0       
